p tw 40 98
0 1
0 15
0 32
0 38
1 2
1 22
1 33
1 20
2 3
2 14
2 5
2 35
2 37
3 7
3 36
4 5
4 12
4 26
5 13
5 10
5 28
5 16
5 6
5 32
5 7
5 18
5 33
6 7
6 8
6 9
6 20
6 22
6 21
6 31
6 10
6 23
7 23
7 20
7 35
7 17
8 20
8 14
9 21
10 11
10 12
10 37
10 13
11 17
11 28
11 12
12 23
12 33
12 21
12 35
12 18
12 17
12 25
12 36
13 21
14 15
14 16
14 33
14 19
14 34
15 27
16 27
16 22
17 18
18 27
19 20
19 25
19 21
19 36
19 31
19 27
21 31
22 26
22 29
22 31
23 34
23 28
24 25
24 29
24 32
25 30
26 27
27 39
27 31
28 34
29 35
29 32
30 31
30 36
31 33
32 36
33 36
34 38
35 39
